c 0.010321378707885742 (encode time in sec)
p cnf 190 1048
1 2 3 10 0
1 2 -3 9 0
1 -2 3 5 0
1 -2 -3 4 0
-1 2 3 6 0
-1 2 -3 7 0
-1 -2 3 8 0
-1 -2 -3 11 0
12 13 14 22 0
12 13 -14 15 0
12 -13 14 17 0
12 -13 -14 16 0
-12 13 14 18 0
-12 13 -14 19 0
-12 -13 14 20 0
-12 -13 -14 21 0
23 24 25 32 0
23 24 -25 27 0
23 -24 25 28 0
23 -24 -25 29 0
-23 24 25 26 0
-23 24 -25 30 0
-23 -24 25 31 0
-23 -24 -25 33 0
34 35 36 1 2 3 12 13 14 37 0
34 35 36 1 2 3 12 13 -14 38 0
34 35 36 1 2 3 12 -13 14 38 0
34 35 36 1 2 3 12 -13 -14 74 0
34 35 36 1 2 3 -12 13 14 75 0
34 35 36 1 2 3 -12 13 -14 38 0
34 35 36 1 2 3 -12 -13 14 39 0
34 35 36 1 2 3 -12 -13 -14 38 0
34 35 36 1 2 -3 12 13 14 37 0
34 35 36 1 2 -3 12 13 -14 37 0
34 35 36 1 2 -3 12 -13 14 76 0
34 35 36 1 2 -3 12 -13 -14 59 0
34 35 36 1 2 -3 -12 13 14 40 0
34 35 36 1 2 -3 -12 13 -14 38 0
34 35 36 1 2 -3 -12 -13 14 74 0
34 35 36 1 2 -3 -12 -13 -14 38 0
34 35 36 1 -2 3 12 13 14 37 0
34 35 36 1 -2 3 12 13 -14 41 0
34 35 36 1 -2 3 12 -13 14 97 0
34 35 36 1 -2 3 12 -13 -14 77 0
34 35 36 1 -2 3 -12 13 14 107 0
34 35 36 1 -2 3 -12 13 -14 60 0
34 35 36 1 -2 3 -12 -13 14 40 0
34 35 36 1 -2 3 -12 -13 -14 74 0
34 35 36 1 -2 -3 12 13 14 74 0
34 35 36 1 -2 -3 12 13 -14 98 0
34 35 36 1 -2 -3 12 -13 14 77 0
34 35 36 1 -2 -3 12 -13 -14 106 0
34 35 36 1 -2 -3 -12 13 14 72 0
34 35 36 1 -2 -3 -12 13 -14 42 0
34 35 36 1 -2 -3 -12 -13 14 61 0
34 35 36 1 -2 -3 -12 -13 -14 75 0
34 35 36 -1 2 3 12 13 14 39 0
34 35 36 -1 2 3 12 13 -14 61 0
34 35 36 -1 2 3 12 -13 14 43 0
34 35 36 -1 2 3 12 -13 -14 69 0
34 35 36 -1 2 3 -12 13 14 78 0
34 35 36 -1 2 3 -12 13 -14 102 0
34 35 36 -1 2 3 -12 -13 14 59 0
34 35 36 -1 2 3 -12 -13 -14 39 0
34 35 36 -1 2 -3 12 13 14 74 0
34 35 36 -1 2 -3 12 13 -14 40 0
34 35 36 -1 2 -3 12 -13 14 59 0
34 35 36 -1 2 -3 12 -13 -14 107 0
34 35 36 -1 2 -3 -12 13 14 87 0
34 35 36 -1 2 -3 -12 13 -14 59 0
34 35 36 -1 2 -3 -12 -13 14 40 0
34 35 36 -1 2 -3 -12 -13 -14 74 0
34 35 36 -1 -2 3 12 13 14 38 0
34 35 36 -1 -2 3 12 13 -14 39 0
34 35 36 -1 -2 3 12 -13 14 74 0
34 35 36 -1 -2 3 12 -13 -14 97 0
34 35 36 -1 -2 3 -12 13 14 40 0
34 35 36 -1 -2 3 -12 13 -14 62 0
34 35 36 -1 -2 3 -12 -13 14 39 0
34 35 36 -1 -2 3 -12 -13 -14 74 0
34 35 36 -1 -2 -3 12 13 14 38 0
34 35 36 -1 -2 -3 12 13 -14 39 0
34 35 36 -1 -2 -3 12 -13 14 39 0
34 35 36 -1 -2 -3 12 -13 -14 38 0
34 35 36 -1 -2 -3 -12 13 14 74 0
34 35 36 -1 -2 -3 -12 13 -14 74 0
34 35 36 -1 -2 -3 -12 -13 14 38 0
34 35 36 -1 -2 -3 -12 -13 -14 38 0
34 35 -36 1 2 3 12 13 14 39 0
34 35 -36 1 2 3 12 13 -14 38 0
34 35 -36 1 2 3 12 -13 14 38 0
34 35 -36 1 2 3 12 -13 -14 44 0
34 35 -36 1 2 3 -12 13 14 75 0
34 35 -36 1 2 3 -12 13 -14 38 0
34 35 -36 1 2 3 -12 -13 14 39 0
34 35 -36 1 2 3 -12 -13 -14 38 0
34 35 -36 1 2 -3 12 13 14 39 0
34 35 -36 1 2 -3 12 13 -14 39 0
34 35 -36 1 2 -3 12 -13 14 45 0
34 35 -36 1 2 -3 12 -13 -14 59 0
34 35 -36 1 2 -3 -12 13 14 40 0
34 35 -36 1 2 -3 -12 13 -14 38 0
34 35 -36 1 2 -3 -12 -13 14 74 0
34 35 -36 1 2 -3 -12 -13 -14 38 0
34 35 -36 1 -2 3 12 13 14 39 0
34 35 -36 1 -2 3 12 13 -14 46 0
34 35 -36 1 -2 3 12 -13 14 79 0
34 35 -36 1 -2 3 12 -13 -14 77 0
34 35 -36 1 -2 3 -12 13 14 107 0
34 35 -36 1 -2 3 -12 13 -14 60 0
34 35 -36 1 -2 3 -12 -13 14 40 0
34 35 -36 1 -2 3 -12 -13 -14 74 0
34 35 -36 1 -2 -3 12 13 14 44 0
34 35 -36 1 -2 -3 12 13 -14 80 0
34 35 -36 1 -2 -3 12 -13 14 47 0
34 35 -36 1 -2 -3 12 -13 -14 106 0
34 35 -36 1 -2 -3 -12 13 14 72 0
34 35 -36 1 -2 -3 -12 13 -14 42 0
34 35 -36 1 -2 -3 -12 -13 14 61 0
34 35 -36 1 -2 -3 -12 -13 -14 75 0
34 35 -36 -1 2 3 12 13 14 37 0
34 35 -36 -1 2 3 12 13 -14 61 0
34 35 -36 -1 2 3 12 -13 14 43 0
34 35 -36 -1 2 3 12 -13 -14 69 0
34 35 -36 -1 2 3 -12 13 14 78 0
34 35 -36 -1 2 3 -12 13 -14 102 0
34 35 -36 -1 2 3 -12 -13 14 59 0
34 35 -36 -1 2 3 -12 -13 -14 39 0
34 35 -36 -1 2 -3 12 13 14 74 0
34 35 -36 -1 2 -3 12 13 -14 40 0
34 35 -36 -1 2 -3 12 -13 14 59 0
34 35 -36 -1 2 -3 12 -13 -14 107 0
34 35 -36 -1 2 -3 -12 13 14 87 0
34 35 -36 -1 2 -3 -12 13 -14 59 0
34 35 -36 -1 2 -3 -12 -13 14 40 0
34 35 -36 -1 2 -3 -12 -13 -14 74 0
34 35 -36 -1 -2 3 12 13 14 38 0
34 35 -36 -1 -2 3 12 13 -14 39 0
34 35 -36 -1 -2 3 12 -13 14 74 0
34 35 -36 -1 -2 3 12 -13 -14 97 0
34 35 -36 -1 -2 3 -12 13 14 40 0
34 35 -36 -1 -2 3 -12 13 -14 62 0
34 35 -36 -1 -2 3 -12 -13 14 39 0
34 35 -36 -1 -2 3 -12 -13 -14 74 0
34 35 -36 -1 -2 -3 12 13 14 38 0
34 35 -36 -1 -2 -3 12 13 -14 39 0
34 35 -36 -1 -2 -3 12 -13 14 39 0
34 35 -36 -1 -2 -3 12 -13 -14 38 0
34 35 -36 -1 -2 -3 -12 13 14 74 0
34 35 -36 -1 -2 -3 -12 13 -14 74 0
34 35 -36 -1 -2 -3 -12 -13 14 38 0
34 35 -36 -1 -2 -3 -12 -13 -14 38 0
34 -35 36 1 2 3 12 13 14 39 0
34 -35 36 1 2 3 12 13 -14 38 0
34 -35 36 1 2 3 12 -13 14 38 0
34 -35 36 1 2 3 12 -13 -14 44 0
34 -35 36 1 2 3 -12 13 14 55 0
34 -35 36 1 2 3 -12 13 -14 38 0
34 -35 36 1 2 3 -12 -13 14 39 0
34 -35 36 1 2 3 -12 -13 -14 38 0
34 -35 36 1 2 -3 12 13 14 39 0
34 -35 36 1 2 -3 12 13 -14 39 0
34 -35 36 1 2 -3 12 -13 14 81 0
34 -35 36 1 2 -3 12 -13 -14 103 0
34 -35 36 1 2 -3 -12 13 14 88 0
34 -35 36 1 2 -3 -12 13 -14 38 0
34 -35 36 1 2 -3 -12 -13 14 74 0
34 -35 36 1 2 -3 -12 -13 -14 38 0
34 -35 36 1 -2 3 12 13 14 39 0
34 -35 36 1 -2 3 12 13 -14 38 0
34 -35 36 1 -2 3 12 -13 14 112 0
34 -35 36 1 -2 3 12 -13 -14 56 0
34 -35 36 1 -2 3 -12 13 14 82 0
34 -35 36 1 -2 3 -12 13 -14 60 0
34 -35 36 1 -2 3 -12 -13 14 40 0
34 -35 36 1 -2 3 -12 -13 -14 74 0
34 -35 36 1 -2 -3 12 13 14 44 0
34 -35 36 1 -2 -3 12 13 -14 48 0
34 -35 36 1 -2 -3 12 -13 14 99 0
34 -35 36 1 -2 -3 12 -13 -14 100 0
34 -35 36 1 -2 -3 -12 13 14 72 0
34 -35 36 1 -2 -3 -12 13 -14 42 0
34 -35 36 1 -2 -3 -12 -13 14 61 0
34 -35 36 1 -2 -3 -12 -13 -14 75 0
34 -35 36 -1 2 3 12 13 14 39 0
34 -35 36 -1 2 3 12 13 -14 49 0
34 -35 36 -1 2 3 12 -13 14 37 0
34 -35 36 -1 2 3 12 -13 -14 69 0
34 -35 36 -1 2 3 -12 13 14 78 0
34 -35 36 -1 2 3 -12 13 -14 102 0
34 -35 36 -1 2 3 -12 -13 14 59 0
34 -35 36 -1 2 3 -12 -13 -14 39 0
34 -35 36 -1 2 -3 12 13 14 85 0
34 -35 36 -1 2 -3 12 13 -14 73 0
34 -35 36 -1 2 -3 12 -13 14 59 0
34 -35 36 -1 2 -3 12 -13 -14 107 0
34 -35 36 -1 2 -3 -12 13 14 87 0
34 -35 36 -1 2 -3 -12 13 -14 59 0
34 -35 36 -1 2 -3 -12 -13 14 40 0
34 -35 36 -1 2 -3 -12 -13 -14 74 0
34 -35 36 -1 -2 3 12 13 14 38 0
34 -35 36 -1 -2 3 12 13 -14 37 0
34 -35 36 -1 -2 3 12 -13 14 74 0
34 -35 36 -1 -2 3 12 -13 -14 97 0
34 -35 36 -1 -2 3 -12 13 14 40 0
34 -35 36 -1 -2 3 -12 13 -14 62 0
34 -35 36 -1 -2 3 -12 -13 14 39 0
34 -35 36 -1 -2 3 -12 -13 -14 74 0
34 -35 36 -1 -2 -3 12 13 14 38 0
34 -35 36 -1 -2 -3 12 13 -14 39 0
34 -35 36 -1 -2 -3 12 -13 14 39 0
34 -35 36 -1 -2 -3 12 -13 -14 38 0
34 -35 36 -1 -2 -3 -12 13 14 74 0
34 -35 36 -1 -2 -3 -12 13 -14 74 0
34 -35 36 -1 -2 -3 -12 -13 14 38 0
34 -35 36 -1 -2 -3 -12 -13 -14 38 0
34 -35 -36 1 2 3 12 13 14 39 0
34 -35 -36 1 2 3 12 13 -14 38 0
34 -35 -36 1 2 3 12 -13 14 38 0
34 -35 -36 1 2 3 12 -13 -14 74 0
34 -35 -36 1 2 3 -12 13 14 75 0
34 -35 -36 1 2 3 -12 13 -14 38 0
34 -35 -36 1 2 3 -12 -13 14 37 0
34 -35 -36 1 2 3 -12 -13 -14 38 0
34 -35 -36 1 2 -3 12 13 14 39 0
34 -35 -36 1 2 -3 12 13 -14 39 0
34 -35 -36 1 2 -3 12 -13 14 76 0
34 -35 -36 1 2 -3 12 -13 -14 59 0
34 -35 -36 1 2 -3 -12 13 14 73 0
34 -35 -36 1 2 -3 -12 13 -14 38 0
34 -35 -36 1 2 -3 -12 -13 14 74 0
34 -35 -36 1 2 -3 -12 -13 -14 38 0
34 -35 -36 1 -2 3 12 13 14 39 0
34 -35 -36 1 -2 3 12 13 -14 50 0
34 -35 -36 1 -2 3 12 -13 14 97 0
34 -35 -36 1 -2 3 12 -13 -14 95 0
34 -35 -36 1 -2 3 -12 13 14 51 0
34 -35 -36 1 -2 3 -12 13 -14 101 0
34 -35 -36 1 -2 3 -12 -13 14 40 0
34 -35 -36 1 -2 3 -12 -13 -14 74 0
34 -35 -36 1 -2 -3 12 13 14 74 0
34 -35 -36 1 -2 -3 12 13 -14 98 0
34 -35 -36 1 -2 -3 12 -13 14 92 0
34 -35 -36 1 -2 -3 12 -13 -14 89 0
34 -35 -36 1 -2 -3 -12 13 14 109 0
34 -35 -36 1 -2 -3 -12 13 -14 42 0
34 -35 -36 1 -2 -3 -12 -13 14 61 0
34 -35 -36 1 -2 -3 -12 -13 -14 75 0
34 -35 -36 -1 2 3 12 13 14 39 0
34 -35 -36 -1 2 3 12 13 -14 61 0
34 -35 -36 -1 2 3 12 -13 14 94 0
34 -35 -36 -1 2 3 12 -13 -14 90 0
34 -35 -36 -1 2 3 -12 13 14 104 0
34 -35 -36 -1 2 3 -12 13 -14 102 0
34 -35 -36 -1 2 3 -12 -13 14 59 0
34 -35 -36 -1 2 3 -12 -13 -14 39 0
34 -35 -36 -1 2 -3 12 13 14 74 0
34 -35 -36 -1 2 -3 12 13 -14 88 0
34 -35 -36 -1 2 -3 12 -13 14 70 0
34 -35 -36 -1 2 -3 12 -13 -14 82 0
34 -35 -36 -1 2 -3 -12 13 14 87 0
34 -35 -36 -1 2 -3 -12 13 -14 59 0
34 -35 -36 -1 2 -3 -12 -13 14 40 0
34 -35 -36 -1 2 -3 -12 -13 -14 74 0
34 -35 -36 -1 -2 3 12 13 14 38 0
34 -35 -36 -1 -2 3 12 13 -14 39 0
34 -35 -36 -1 -2 3 12 -13 14 74 0
34 -35 -36 -1 -2 3 12 -13 -14 97 0
34 -35 -36 -1 -2 3 -12 13 14 40 0
34 -35 -36 -1 -2 3 -12 13 -14 62 0
34 -35 -36 -1 -2 3 -12 -13 14 39 0
34 -35 -36 -1 -2 3 -12 -13 -14 74 0
34 -35 -36 -1 -2 -3 12 13 14 38 0
34 -35 -36 -1 -2 -3 12 13 -14 39 0
34 -35 -36 -1 -2 -3 12 -13 14 39 0
34 -35 -36 -1 -2 -3 12 -13 -14 38 0
34 -35 -36 -1 -2 -3 -12 13 14 74 0
34 -35 -36 -1 -2 -3 -12 13 -14 74 0
34 -35 -36 -1 -2 -3 -12 -13 14 38 0
34 -35 -36 -1 -2 -3 -12 -13 -14 38 0
-34 35 36 1 2 3 12 13 14 39 0
-34 35 36 1 2 3 12 13 -14 38 0
-34 35 36 1 2 3 12 -13 14 38 0
-34 35 36 1 2 3 12 -13 -14 74 0
-34 35 36 1 2 3 -12 13 14 75 0
-34 35 36 1 2 3 -12 13 -14 38 0
-34 35 36 1 2 3 -12 -13 14 39 0
-34 35 36 1 2 3 -12 -13 -14 38 0
-34 35 36 1 2 -3 12 13 14 39 0
-34 35 36 1 2 -3 12 13 -14 39 0
-34 35 36 1 2 -3 12 -13 14 76 0
-34 35 36 1 2 -3 12 -13 -14 59 0
-34 35 36 1 2 -3 -12 13 14 40 0
-34 35 36 1 2 -3 -12 13 -14 38 0
-34 35 36 1 2 -3 -12 -13 14 44 0
-34 35 36 1 2 -3 -12 -13 -14 38 0
-34 35 36 1 -2 3 12 13 14 39 0
-34 35 36 1 -2 3 12 13 -14 50 0
-34 35 36 1 -2 3 12 -13 14 97 0
-34 35 36 1 -2 3 12 -13 -14 77 0
-34 35 36 1 -2 3 -12 13 14 71 0
-34 35 36 1 -2 3 -12 13 -14 67 0
-34 35 36 1 -2 3 -12 -13 14 88 0
-34 35 36 1 -2 3 -12 -13 -14 44 0
-34 35 36 1 -2 -3 12 13 14 74 0
-34 35 36 1 -2 -3 12 13 -14 98 0
-34 35 36 1 -2 -3 12 -13 14 77 0
-34 35 36 1 -2 -3 12 -13 -14 63 0
-34 35 36 1 -2 -3 -12 13 14 52 0
-34 35 36 1 -2 -3 -12 13 -14 58 0
-34 35 36 1 -2 -3 -12 -13 14 61 0
-34 35 36 1 -2 -3 -12 -13 -14 75 0
-34 35 36 -1 2 3 12 13 14 39 0
-34 35 36 -1 2 3 12 13 -14 61 0
-34 35 36 -1 2 3 12 -13 14 104 0
-34 35 36 -1 2 3 12 -13 -14 110 0
-34 35 36 -1 2 3 -12 13 14 111 0
-34 35 36 -1 2 3 -12 13 -14 83 0
-34 35 36 -1 2 3 -12 -13 14 59 0
-34 35 36 -1 2 3 -12 -13 -14 39 0
-34 35 36 -1 2 -3 12 13 14 74 0
-34 35 36 -1 2 -3 12 13 -14 40 0
-34 35 36 -1 2 -3 12 -13 14 64 0
-34 35 36 -1 2 -3 12 -13 -14 65 0
-34 35 36 -1 2 -3 -12 13 14 84 0
-34 35 36 -1 2 -3 -12 13 -14 59 0
-34 35 36 -1 2 -3 -12 -13 14 40 0
-34 35 36 -1 2 -3 -12 -13 -14 74 0
-34 35 36 -1 -2 3 12 13 14 38 0
-34 35 36 -1 -2 3 12 13 -14 39 0
-34 35 36 -1 -2 3 12 -13 14 85 0
-34 35 36 -1 -2 3 12 -13 -14 96 0
-34 35 36 -1 -2 3 -12 13 14 68 0
-34 35 36 -1 -2 3 -12 13 -14 62 0
-34 35 36 -1 -2 3 -12 -13 14 39 0
-34 35 36 -1 -2 3 -12 -13 -14 74 0
-34 35 36 -1 -2 -3 12 13 14 38 0
-34 35 36 -1 -2 -3 12 13 -14 37 0
-34 35 36 -1 -2 -3 12 -13 14 37 0
-34 35 36 -1 -2 -3 12 -13 -14 38 0
-34 35 36 -1 -2 -3 -12 13 14 74 0
-34 35 36 -1 -2 -3 -12 13 -14 74 0
-34 35 36 -1 -2 -3 -12 -13 14 38 0
-34 35 36 -1 -2 -3 -12 -13 -14 38 0
-34 35 -36 1 2 3 12 13 14 39 0
-34 35 -36 1 2 3 12 13 -14 38 0
-34 35 -36 1 2 3 12 -13 14 38 0
-34 35 -36 1 2 3 12 -13 -14 74 0
-34 35 -36 1 2 3 -12 13 14 75 0
-34 35 -36 1 2 3 -12 13 -14 38 0
-34 35 -36 1 2 3 -12 -13 14 39 0
-34 35 -36 1 2 3 -12 -13 -14 38 0
-34 35 -36 1 2 -3 12 13 14 39 0
-34 35 -36 1 2 -3 12 13 -14 39 0
-34 35 -36 1 2 -3 12 -13 14 76 0
-34 35 -36 1 2 -3 12 -13 -14 59 0
-34 35 -36 1 2 -3 -12 13 14 40 0
-34 35 -36 1 2 -3 -12 13 -14 38 0
-34 35 -36 1 2 -3 -12 -13 14 44 0
-34 35 -36 1 2 -3 -12 -13 -14 38 0
-34 35 -36 1 -2 3 12 13 14 39 0
-34 35 -36 1 -2 3 12 13 -14 50 0
-34 35 -36 1 -2 3 12 -13 14 97 0
-34 35 -36 1 -2 3 12 -13 -14 77 0
-34 35 -36 1 -2 3 -12 13 14 107 0
-34 35 -36 1 -2 3 -12 13 -14 76 0
-34 35 -36 1 -2 3 -12 -13 14 73 0
-34 35 -36 1 -2 3 -12 -13 -14 74 0
-34 35 -36 1 -2 -3 12 13 14 74 0
-34 35 -36 1 -2 -3 12 13 -14 98 0
-34 35 -36 1 -2 -3 12 -13 14 77 0
-34 35 -36 1 -2 -3 12 -13 -14 106 0
-34 35 -36 1 -2 -3 -12 13 14 72 0
-34 35 -36 1 -2 -3 -12 13 -14 64 0
-34 35 -36 1 -2 -3 -12 -13 14 49 0
-34 35 -36 1 -2 -3 -12 -13 -14 75 0
-34 35 -36 -1 2 3 12 13 14 39 0
-34 35 -36 -1 2 3 12 13 -14 61 0
-34 35 -36 -1 2 3 12 -13 14 43 0
-34 35 -36 -1 2 3 12 -13 -14 98 0
-34 35 -36 -1 2 3 -12 13 14 66 0
-34 35 -36 -1 2 3 -12 13 -14 54 0
-34 35 -36 -1 2 3 -12 -13 14 57 0
-34 35 -36 -1 2 3 -12 -13 -14 39 0
-34 35 -36 -1 2 -3 12 13 14 74 0
-34 35 -36 -1 2 -3 12 13 -14 40 0
-34 35 -36 -1 2 -3 12 -13 14 59 0
-34 35 -36 -1 2 -3 12 -13 -14 82 0
-34 35 -36 -1 2 -3 -12 13 14 53 0
-34 35 -36 -1 2 -3 -12 13 -14 70 0
-34 35 -36 -1 2 -3 -12 -13 14 40 0
-34 35 -36 -1 2 -3 -12 -13 -14 74 0
-34 35 -36 -1 -2 3 12 13 14 38 0
-34 35 -36 -1 -2 3 12 13 -14 39 0
-34 35 -36 -1 -2 3 12 -13 14 74 0
-34 35 -36 -1 -2 3 12 -13 -14 86 0
-34 35 -36 -1 -2 3 -12 13 14 88 0
-34 35 -36 -1 -2 3 -12 13 -14 105 0
-34 35 -36 -1 -2 3 -12 -13 14 39 0
-34 35 -36 -1 -2 3 -12 -13 -14 74 0
-34 35 -36 -1 -2 -3 12 13 14 38 0
-34 35 -36 -1 -2 -3 12 13 -14 39 0
-34 35 -36 -1 -2 -3 12 -13 14 39 0
-34 35 -36 -1 -2 -3 12 -13 -14 38 0
-34 35 -36 -1 -2 -3 -12 13 14 85 0
-34 35 -36 -1 -2 -3 -12 13 -14 74 0
-34 35 -36 -1 -2 -3 -12 -13 14 38 0
-34 35 -36 -1 -2 -3 -12 -13 -14 38 0
-34 -35 36 1 2 3 12 13 14 39 0
-34 -35 36 1 2 3 12 13 -14 38 0
-34 -35 36 1 2 3 12 -13 14 38 0
-34 -35 36 1 2 3 12 -13 -14 74 0
-34 -35 36 1 2 3 -12 13 14 75 0
-34 -35 36 1 2 3 -12 13 -14 38 0
-34 -35 36 1 2 3 -12 -13 14 39 0
-34 -35 36 1 2 3 -12 -13 -14 38 0
-34 -35 36 1 2 -3 12 13 14 39 0
-34 -35 36 1 2 -3 12 13 -14 39 0
-34 -35 36 1 2 -3 12 -13 14 76 0
-34 -35 36 1 2 -3 12 -13 -14 59 0
-34 -35 36 1 2 -3 -12 13 14 40 0
-34 -35 36 1 2 -3 -12 13 -14 38 0
-34 -35 36 1 2 -3 -12 -13 14 74 0
-34 -35 36 1 2 -3 -12 -13 -14 38 0
-34 -35 36 1 -2 3 12 13 14 39 0
-34 -35 36 1 -2 3 12 13 -14 50 0
-34 -35 36 1 -2 3 12 -13 14 97 0
-34 -35 36 1 -2 3 12 -13 -14 77 0
-34 -35 36 1 -2 3 -12 13 14 107 0
-34 -35 36 1 -2 3 -12 13 -14 60 0
-34 -35 36 1 -2 3 -12 -13 14 40 0
-34 -35 36 1 -2 3 -12 -13 -14 44 0
-34 -35 36 1 -2 -3 12 13 14 74 0
-34 -35 36 1 -2 -3 12 13 -14 98 0
-34 -35 36 1 -2 -3 12 -13 14 77 0
-34 -35 36 1 -2 -3 12 -13 -14 106 0
-34 -35 36 1 -2 -3 -12 13 14 72 0
-34 -35 36 1 -2 -3 -12 13 -14 42 0
-34 -35 36 1 -2 -3 -12 -13 14 61 0
-34 -35 36 1 -2 -3 -12 -13 -14 55 0
-34 -35 36 -1 2 3 12 13 14 39 0
-34 -35 36 -1 2 3 12 13 -14 61 0
-34 -35 36 -1 2 3 12 -13 14 43 0
-34 -35 36 -1 2 3 12 -13 -14 69 0
-34 -35 36 -1 2 3 -12 13 14 78 0
-34 -35 36 -1 2 3 -12 13 -14 91 0
-34 -35 36 -1 2 3 -12 -13 14 57 0
-34 -35 36 -1 2 3 -12 -13 -14 37 0
-34 -35 36 -1 2 -3 12 13 14 74 0
-34 -35 36 -1 2 -3 12 13 -14 40 0
-34 -35 36 -1 2 -3 12 -13 14 59 0
-34 -35 36 -1 2 -3 12 -13 -14 107 0
-34 -35 36 -1 2 -3 -12 13 14 40 0
-34 -35 36 -1 2 -3 -12 13 -14 64 0
-34 -35 36 -1 2 -3 -12 -13 14 108 0
-34 -35 36 -1 2 -3 -12 -13 -14 44 0
-34 -35 36 -1 -2 3 12 13 14 38 0
-34 -35 36 -1 -2 3 12 13 -14 39 0
-34 -35 36 -1 -2 3 12 -13 14 74 0
-34 -35 36 -1 -2 3 12 -13 -14 97 0
-34 -35 36 -1 -2 3 -12 13 14 68 0
-34 -35 36 -1 -2 3 -12 13 -14 93 0
-34 -35 36 -1 -2 3 -12 -13 14 39 0
-34 -35 36 -1 -2 3 -12 -13 -14 74 0
-34 -35 36 -1 -2 -3 12 13 14 38 0
-34 -35 36 -1 -2 -3 12 13 -14 39 0
-34 -35 36 -1 -2 -3 12 -13 14 39 0
-34 -35 36 -1 -2 -3 12 -13 -14 38 0
-34 -35 36 -1 -2 -3 -12 13 14 74 0
-34 -35 36 -1 -2 -3 -12 13 -14 44 0
-34 -35 36 -1 -2 -3 -12 -13 14 38 0
-34 -35 36 -1 -2 -3 -12 -13 -14 38 0
-34 -35 -36 1 2 3 12 13 14 39 0
-34 -35 -36 1 2 3 12 13 -14 38 0
-34 -35 -36 1 2 3 12 -13 14 38 0
-34 -35 -36 1 2 3 12 -13 -14 74 0
-34 -35 -36 1 2 3 -12 13 14 75 0
-34 -35 -36 1 2 3 -12 13 -14 38 0
-34 -35 -36 1 2 3 -12 -13 14 39 0
-34 -35 -36 1 2 3 -12 -13 -14 38 0
-34 -35 -36 1 2 -3 12 13 14 39 0
-34 -35 -36 1 2 -3 12 13 -14 39 0
-34 -35 -36 1 2 -3 12 -13 14 76 0
-34 -35 -36 1 2 -3 12 -13 -14 59 0
-34 -35 -36 1 2 -3 -12 13 14 40 0
-34 -35 -36 1 2 -3 -12 13 -14 38 0
-34 -35 -36 1 2 -3 -12 -13 14 74 0
-34 -35 -36 1 2 -3 -12 -13 -14 38 0
-34 -35 -36 1 -2 3 12 13 14 39 0
-34 -35 -36 1 -2 3 12 13 -14 50 0
-34 -35 -36 1 -2 3 12 -13 14 97 0
-34 -35 -36 1 -2 3 12 -13 -14 77 0
-34 -35 -36 1 -2 3 -12 13 14 107 0
-34 -35 -36 1 -2 3 -12 13 -14 60 0
-34 -35 -36 1 -2 3 -12 -13 14 40 0
-34 -35 -36 1 -2 3 -12 -13 -14 74 0
-34 -35 -36 1 -2 -3 12 13 14 74 0
-34 -35 -36 1 -2 -3 12 13 -14 98 0
-34 -35 -36 1 -2 -3 12 -13 14 77 0
-34 -35 -36 1 -2 -3 12 -13 -14 106 0
-34 -35 -36 1 -2 -3 -12 13 14 72 0
-34 -35 -36 1 -2 -3 -12 13 -14 42 0
-34 -35 -36 1 -2 -3 -12 -13 14 61 0
-34 -35 -36 1 -2 -3 -12 -13 -14 75 0
-34 -35 -36 -1 2 3 12 13 14 39 0
-34 -35 -36 -1 2 3 12 13 -14 61 0
-34 -35 -36 -1 2 3 12 -13 14 43 0
-34 -35 -36 -1 2 3 12 -13 -14 69 0
-34 -35 -36 -1 2 3 -12 13 14 78 0
-34 -35 -36 -1 2 3 -12 13 -14 102 0
-34 -35 -36 -1 2 3 -12 -13 14 59 0
-34 -35 -36 -1 2 3 -12 -13 -14 39 0
-34 -35 -36 -1 2 -3 12 13 14 74 0
-34 -35 -36 -1 2 -3 12 13 -14 40 0
-34 -35 -36 -1 2 -3 12 -13 14 59 0
-34 -35 -36 -1 2 -3 12 -13 -14 107 0
-34 -35 -36 -1 2 -3 -12 13 14 87 0
-34 -35 -36 -1 2 -3 -12 13 -14 59 0
-34 -35 -36 -1 2 -3 -12 -13 14 40 0
-34 -35 -36 -1 2 -3 -12 -13 -14 44 0
-34 -35 -36 -1 -2 3 12 13 14 38 0
-34 -35 -36 -1 -2 3 12 13 -14 39 0
-34 -35 -36 -1 -2 3 12 -13 14 74 0
-34 -35 -36 -1 -2 3 12 -13 -14 97 0
-34 -35 -36 -1 -2 3 -12 13 14 40 0
-34 -35 -36 -1 -2 3 -12 13 -14 62 0
-34 -35 -36 -1 -2 3 -12 -13 14 37 0
-34 -35 -36 -1 -2 3 -12 -13 -14 85 0
-34 -35 -36 -1 -2 -3 12 13 14 38 0
-34 -35 -36 -1 -2 -3 12 13 -14 39 0
-34 -35 -36 -1 -2 -3 12 -13 14 39 0
-34 -35 -36 -1 -2 -3 12 -13 -14 38 0
-34 -35 -36 -1 -2 -3 -12 13 14 74 0
-34 -35 -36 -1 -2 -3 -12 13 -14 44 0
-34 -35 -36 -1 -2 -3 -12 -13 14 38 0
-34 -35 -36 -1 -2 -3 -12 -13 -14 38 0
113 114 115 23 24 25 34 35 36 116 0
113 114 115 23 24 25 34 35 -36 117 0
113 114 115 23 24 25 34 -35 36 117 0
113 114 115 23 24 25 34 -35 -36 137 0
113 114 115 23 24 25 -34 35 36 138 0
113 114 115 23 24 25 -34 35 -36 156 0
113 114 115 23 24 25 -34 -35 36 118 0
113 114 115 23 24 25 -34 -35 -36 117 0
113 114 115 23 24 -25 34 35 36 117 0
113 114 115 23 24 -25 34 35 -36 119 0
113 114 115 23 24 -25 34 -35 36 175 0
113 114 115 23 24 -25 34 -35 -36 120 0
113 114 115 23 24 -25 -34 35 36 139 0
113 114 115 23 24 -25 -34 35 -36 139 0
113 114 115 23 24 -25 -34 -35 36 138 0
113 114 115 23 24 -25 -34 -35 -36 117 0
113 114 115 23 -24 25 34 35 36 123 0
113 114 115 23 -24 25 34 35 -36 138 0
113 114 115 23 -24 25 34 -35 36 150 0
113 114 115 23 -24 25 34 -35 -36 151 0
113 114 115 23 -24 25 -34 35 36 167 0
113 114 115 23 -24 25 -34 35 -36 124 0
113 114 115 23 -24 25 -34 -35 36 119 0
113 114 115 23 -24 25 -34 -35 -36 117 0
113 114 115 23 -24 -25 34 35 36 122 0
113 114 115 23 -24 -25 34 35 -36 156 0
113 114 115 23 -24 -25 34 -35 36 157 0
113 114 115 23 -24 -25 34 -35 -36 183 0
113 114 115 23 -24 -25 -34 35 36 121 0
113 114 115 23 -24 -25 -34 35 -36 176 0
113 114 115 23 -24 -25 -34 -35 36 177 0
113 114 115 23 -24 -25 -34 -35 -36 138 0
113 114 115 -23 24 25 34 35 36 117 0
113 114 115 -23 24 25 34 35 -36 119 0
113 114 115 -23 24 25 34 -35 36 150 0
113 114 115 -23 24 25 34 -35 -36 144 0
113 114 115 -23 24 25 -34 35 36 140 0
113 114 115 -23 24 25 -34 35 -36 168 0
113 114 115 -23 24 25 -34 -35 36 125 0
113 114 115 -23 24 25 -34 -35 -36 118 0
113 114 115 -23 24 -25 34 35 36 117 0
113 114 115 -23 24 -25 34 35 -36 158 0
113 114 115 -23 24 -25 34 -35 36 177 0
113 114 115 -23 24 -25 34 -35 -36 120 0
113 114 115 -23 24 -25 -34 35 36 159 0
113 114 115 -23 24 -25 -34 35 -36 150 0
113 114 115 -23 24 -25 -34 -35 36 118 0
113 114 115 -23 24 -25 -34 -35 -36 117 0
113 114 115 -23 -24 25 34 35 36 117 0
113 114 115 -23 -24 25 34 35 -36 117 0
113 114 115 -23 -24 25 34 -35 36 119 0
113 114 115 -23 -24 25 34 -35 -36 156 0
113 114 115 -23 -24 25 -34 35 36 156 0
113 114 115 -23 -24 25 -34 35 -36 118 0
113 114 115 -23 -24 25 -34 -35 36 118 0
113 114 115 -23 -24 25 -34 -35 -36 117 0
113 114 115 -23 -24 -25 34 35 36 117 0
113 114 115 -23 -24 -25 34 35 -36 117 0
113 114 115 -23 -24 -25 34 -35 36 117 0
113 114 115 -23 -24 -25 34 -35 -36 118 0
113 114 115 -23 -24 -25 -34 35 36 117 0
113 114 115 -23 -24 -25 -34 35 -36 117 0
113 114 115 -23 -24 -25 -34 -35 36 117 0
113 114 115 -23 -24 -25 -34 -35 -36 117 0
113 114 -115 23 24 25 34 35 36 118 0
113 114 -115 23 24 25 34 35 -36 117 0
113 114 -115 23 24 25 34 -35 36 117 0
113 114 -115 23 24 25 34 -35 -36 137 0
113 114 -115 23 24 25 -34 35 36 138 0
113 114 -115 23 24 25 -34 35 -36 156 0
113 114 -115 23 24 25 -34 -35 36 118 0
113 114 -115 23 24 25 -34 -35 -36 117 0
113 114 -115 23 24 -25 34 35 36 117 0
113 114 -115 23 24 -25 34 35 -36 190 0
113 114 -115 23 24 -25 34 -35 36 175 0
113 114 -115 23 24 -25 34 -35 -36 120 0
113 114 -115 23 24 -25 -34 35 36 139 0
113 114 -115 23 24 -25 -34 35 -36 139 0
113 114 -115 23 24 -25 -34 -35 36 138 0
113 114 -115 23 24 -25 -34 -35 -36 117 0
113 114 -115 23 -24 25 34 35 36 123 0
113 114 -115 23 -24 25 34 35 -36 126 0
113 114 -115 23 -24 25 34 -35 36 150 0
113 114 -115 23 -24 25 34 -35 -36 151 0
113 114 -115 23 -24 25 -34 35 36 167 0
113 114 -115 23 -24 25 -34 35 -36 124 0
113 114 -115 23 -24 25 -34 -35 36 119 0
113 114 -115 23 -24 25 -34 -35 -36 117 0
113 114 -115 23 -24 -25 34 35 36 169 0
113 114 -115 23 -24 -25 34 35 -36 156 0
113 114 -115 23 -24 -25 34 -35 36 157 0
113 114 -115 23 -24 -25 34 -35 -36 183 0
113 114 -115 23 -24 -25 -34 35 36 121 0
113 114 -115 23 -24 -25 -34 35 -36 176 0
113 114 -115 23 -24 -25 -34 -35 36 177 0
113 114 -115 23 -24 -25 -34 -35 -36 138 0
113 114 -115 -23 24 25 34 35 36 117 0
113 114 -115 -23 24 25 34 35 -36 153 0
113 114 -115 -23 24 25 34 -35 36 150 0
113 114 -115 -23 24 25 34 -35 -36 144 0
113 114 -115 -23 24 25 -34 35 36 140 0
113 114 -115 -23 24 25 -34 35 -36 168 0
113 114 -115 -23 24 25 -34 -35 36 125 0
113 114 -115 -23 24 25 -34 -35 -36 118 0
113 114 -115 -23 24 -25 34 35 36 117 0
113 114 -115 -23 24 -25 34 35 -36 158 0
113 114 -115 -23 24 -25 34 -35 36 177 0
113 114 -115 -23 24 -25 34 -35 -36 120 0
113 114 -115 -23 24 -25 -34 35 36 159 0
113 114 -115 -23 24 -25 -34 35 -36 150 0
113 114 -115 -23 24 -25 -34 -35 36 118 0
113 114 -115 -23 24 -25 -34 -35 -36 117 0
113 114 -115 -23 -24 25 34 35 36 117 0
113 114 -115 -23 -24 25 34 35 -36 117 0
113 114 -115 -23 -24 25 34 -35 36 119 0
113 114 -115 -23 -24 25 34 -35 -36 156 0
113 114 -115 -23 -24 25 -34 35 36 156 0
113 114 -115 -23 -24 25 -34 35 -36 118 0
113 114 -115 -23 -24 25 -34 -35 36 118 0
113 114 -115 -23 -24 25 -34 -35 -36 117 0
113 114 -115 -23 -24 -25 34 35 36 117 0
113 114 -115 -23 -24 -25 34 35 -36 117 0
113 114 -115 -23 -24 -25 34 -35 36 117 0
113 114 -115 -23 -24 -25 34 -35 -36 118 0
113 114 -115 -23 -24 -25 -34 35 36 117 0
113 114 -115 -23 -24 -25 -34 35 -36 117 0
113 114 -115 -23 -24 -25 -34 -35 36 117 0
113 114 -115 -23 -24 -25 -34 -35 -36 117 0
113 -114 115 23 24 25 34 35 36 118 0
113 -114 115 23 24 25 34 35 -36 117 0
113 -114 115 23 24 25 34 -35 36 117 0
113 -114 115 23 24 25 34 -35 -36 161 0
113 -114 115 23 24 25 -34 35 36 138 0
113 -114 115 23 24 25 -34 35 -36 156 0
113 -114 115 23 24 25 -34 -35 36 118 0
113 -114 115 23 24 25 -34 -35 -36 117 0
113 -114 115 23 24 -25 34 35 36 117 0
113 -114 115 23 24 -25 34 35 -36 119 0
113 -114 115 23 24 -25 34 -35 36 127 0
113 -114 115 23 24 -25 34 -35 -36 145 0
113 -114 115 23 24 -25 -34 35 36 139 0
113 -114 115 23 24 -25 -34 35 -36 139 0
113 -114 115 23 24 -25 -34 -35 36 138 0
113 -114 115 23 24 -25 -34 -35 -36 117 0
113 -114 115 23 -24 25 34 35 36 156 0
113 -114 115 23 -24 25 34 35 -36 126 0
113 -114 115 23 -24 25 34 -35 36 170 0
113 -114 115 23 -24 25 34 -35 -36 151 0
113 -114 115 23 -24 25 -34 35 36 167 0
113 -114 115 23 -24 25 -34 35 -36 124 0
113 -114 115 23 -24 25 -34 -35 36 119 0
113 -114 115 23 -24 25 -34 -35 -36 117 0
113 -114 115 23 -24 -25 34 35 36 158 0
113 -114 115 23 -24 -25 34 35 -36 166 0
113 -114 115 23 -24 -25 34 -35 36 174 0
113 -114 115 23 -24 -25 34 -35 -36 183 0
113 -114 115 23 -24 -25 -34 35 36 121 0
113 -114 115 23 -24 -25 -34 35 -36 176 0
113 -114 115 23 -24 -25 -34 -35 36 177 0
113 -114 115 23 -24 -25 -34 -35 -36 138 0
113 -114 115 -23 24 25 34 35 36 117 0
113 -114 115 -23 24 25 34 35 -36 171 0
113 -114 115 -23 24 25 34 -35 36 123 0
113 -114 115 -23 24 25 34 -35 -36 144 0
113 -114 115 -23 24 25 -34 35 36 140 0
113 -114 115 -23 24 25 -34 35 -36 168 0
113 -114 115 -23 24 25 -34 -35 36 125 0
113 -114 115 -23 24 25 -34 -35 -36 118 0
113 -114 115 -23 24 -25 34 35 36 117 0
113 -114 115 -23 24 -25 34 35 -36 134 0
113 -114 115 -23 24 -25 34 -35 36 177 0
113 -114 115 -23 24 -25 34 -35 -36 120 0
113 -114 115 -23 24 -25 -34 35 36 159 0
113 -114 115 -23 24 -25 -34 35 -36 150 0
113 -114 115 -23 24 -25 -34 -35 36 118 0
113 -114 115 -23 24 -25 -34 -35 -36 117 0
113 -114 115 -23 -24 25 34 35 36 117 0
113 -114 115 -23 -24 25 34 35 -36 117 0
113 -114 115 -23 -24 25 34 -35 36 119 0
113 -114 115 -23 -24 25 34 -35 -36 156 0
113 -114 115 -23 -24 25 -34 35 36 156 0
113 -114 115 -23 -24 25 -34 35 -36 118 0
113 -114 115 -23 -24 25 -34 -35 36 118 0
113 -114 115 -23 -24 25 -34 -35 -36 117 0
113 -114 115 -23 -24 -25 34 35 36 117 0
113 -114 115 -23 -24 -25 34 35 -36 117 0
113 -114 115 -23 -24 -25 34 -35 36 117 0
113 -114 115 -23 -24 -25 34 -35 -36 118 0
113 -114 115 -23 -24 -25 -34 35 36 117 0
113 -114 115 -23 -24 -25 -34 35 -36 117 0
113 -114 115 -23 -24 -25 -34 -35 36 117 0
113 -114 115 -23 -24 -25 -34 -35 -36 117 0
113 -114 -115 23 24 25 34 35 36 118 0
113 -114 -115 23 24 25 34 35 -36 117 0
113 -114 -115 23 24 25 34 -35 36 117 0
113 -114 -115 23 24 25 34 -35 -36 172 0
113 -114 -115 23 24 25 -34 35 36 172 0
113 -114 -115 23 24 25 -34 35 -36 156 0
113 -114 -115 23 24 25 -34 -35 36 118 0
113 -114 -115 23 24 25 -34 -35 -36 117 0
113 -114 -115 23 24 -25 34 35 36 117 0
113 -114 -115 23 24 -25 34 35 -36 119 0
113 -114 -115 23 24 -25 34 -35 36 175 0
113 -114 -115 23 24 -25 34 -35 -36 178 0
113 -114 -115 23 24 -25 -34 35 36 123 0
113 -114 -115 23 24 -25 -34 35 -36 139 0
113 -114 -115 23 24 -25 -34 -35 36 138 0
113 -114 -115 23 24 -25 -34 -35 -36 117 0
113 -114 -115 23 -24 25 34 35 36 156 0
113 -114 -115 23 -24 25 34 35 -36 138 0
113 -114 -115 23 -24 25 34 -35 36 150 0
113 -114 -115 23 -24 25 34 -35 -36 162 0
113 -114 -115 23 -24 25 -34 35 36 152 0
113 -114 -115 23 -24 25 -34 35 -36 124 0
113 -114 -115 23 -24 25 -34 -35 36 119 0
113 -114 -115 23 -24 25 -34 -35 -36 117 0
113 -114 -115 23 -24 -25 34 35 36 158 0
113 -114 -115 23 -24 -25 34 35 -36 156 0
113 -114 -115 23 -24 -25 34 -35 36 188 0
113 -114 -115 23 -24 -25 34 -35 -36 163 0
113 -114 -115 23 -24 -25 -34 35 36 128 0
113 -114 -115 23 -24 -25 -34 35 -36 176 0
113 -114 -115 23 -24 -25 -34 -35 36 177 0
113 -114 -115 23 -24 -25 -34 -35 -36 138 0
113 -114 -115 -23 24 25 34 35 36 117 0
113 -114 -115 -23 24 25 34 35 -36 119 0
113 -114 -115 -23 24 25 34 -35 36 179 0
113 -114 -115 -23 24 25 34 -35 -36 149 0
113 -114 -115 -23 24 25 -34 35 36 140 0
113 -114 -115 -23 24 25 -34 35 -36 168 0
113 -114 -115 -23 24 25 -34 -35 36 125 0
113 -114 -115 -23 24 25 -34 -35 -36 118 0
113 -114 -115 -23 24 -25 34 35 36 117 0
113 -114 -115 -23 24 -25 34 35 -36 158 0
113 -114 -115 -23 24 -25 34 -35 36 135 0
113 -114 -115 -23 24 -25 34 -35 -36 154 0
113 -114 -115 -23 24 -25 -34 35 36 159 0
113 -114 -115 -23 24 -25 -34 35 -36 150 0
113 -114 -115 -23 24 -25 -34 -35 36 118 0
113 -114 -115 -23 24 -25 -34 -35 -36 117 0
113 -114 -115 -23 -24 25 34 35 36 117 0
113 -114 -115 -23 -24 25 34 35 -36 117 0
113 -114 -115 -23 -24 25 34 -35 36 180 0
113 -114 -115 -23 -24 25 34 -35 -36 156 0
113 -114 -115 -23 -24 25 -34 35 36 156 0
113 -114 -115 -23 -24 25 -34 35 -36 118 0
113 -114 -115 -23 -24 25 -34 -35 36 118 0
113 -114 -115 -23 -24 25 -34 -35 -36 117 0
113 -114 -115 -23 -24 -25 34 35 36 117 0
113 -114 -115 -23 -24 -25 34 35 -36 117 0
113 -114 -115 -23 -24 -25 34 -35 36 117 0
113 -114 -115 -23 -24 -25 34 -35 -36 118 0
113 -114 -115 -23 -24 -25 -34 35 36 117 0
113 -114 -115 -23 -24 -25 -34 35 -36 117 0
113 -114 -115 -23 -24 -25 -34 -35 36 117 0
113 -114 -115 -23 -24 -25 -34 -35 -36 117 0
-113 114 115 23 24 25 34 35 36 118 0
-113 114 115 23 24 25 34 35 -36 117 0
-113 114 115 23 24 25 34 -35 36 117 0
-113 114 115 23 24 25 34 -35 -36 137 0
-113 114 115 23 24 25 -34 35 36 160 0
-113 114 115 23 24 25 -34 35 -36 166 0
-113 114 115 23 24 25 -34 -35 36 118 0
-113 114 115 23 24 25 -34 -35 -36 117 0
-113 114 115 23 24 -25 34 35 36 117 0
-113 114 115 23 24 -25 34 35 -36 119 0
-113 114 115 23 24 -25 34 -35 36 175 0
-113 114 115 23 24 -25 34 -35 -36 120 0
-113 114 115 23 24 -25 -34 35 36 129 0
-113 114 115 23 24 -25 -34 35 -36 184 0
-113 114 115 23 24 -25 -34 -35 36 138 0
-113 114 115 23 24 -25 -34 -35 -36 117 0
-113 114 115 23 -24 25 34 35 36 156 0
-113 114 115 23 -24 25 34 35 -36 138 0
-113 114 115 23 -24 25 34 -35 36 150 0
-113 114 115 23 -24 25 34 -35 -36 181 0
-113 114 115 23 -24 25 -34 35 36 132 0
-113 114 115 23 -24 25 -34 35 -36 185 0
-113 114 115 23 -24 25 -34 -35 36 119 0
-113 114 115 23 -24 25 -34 -35 -36 117 0
-113 114 115 23 -24 -25 34 35 36 158 0
-113 114 115 23 -24 -25 34 35 -36 156 0
-113 114 115 23 -24 -25 34 -35 36 157 0
-113 114 115 23 -24 -25 34 -35 -36 146 0
-113 114 115 23 -24 -25 -34 35 36 164 0
-113 114 115 23 -24 -25 -34 35 -36 176 0
-113 114 115 23 -24 -25 -34 -35 36 177 0
-113 114 115 23 -24 -25 -34 -35 -36 138 0
-113 114 115 -23 24 25 34 35 36 117 0
-113 114 115 -23 24 25 34 35 -36 119 0
-113 114 115 -23 24 25 34 -35 36 150 0
-113 114 115 -23 24 25 34 -35 -36 173 0
-113 114 115 -23 24 25 -34 35 36 186 0
-113 114 115 -23 24 25 -34 35 -36 168 0
-113 114 115 -23 24 25 -34 -35 36 125 0
-113 114 115 -23 24 25 -34 -35 -36 118 0
-113 114 115 -23 24 -25 34 35 36 117 0
-113 114 115 -23 24 -25 34 35 -36 158 0
-113 114 115 -23 24 -25 34 -35 36 177 0
-113 114 115 -23 24 -25 34 -35 -36 165 0
-113 114 115 -23 24 -25 -34 35 36 172 0
-113 114 115 -23 24 -25 -34 35 -36 150 0
-113 114 115 -23 24 -25 -34 -35 36 118 0
-113 114 115 -23 24 -25 -34 -35 -36 117 0
-113 114 115 -23 -24 25 34 35 36 117 0
-113 114 115 -23 -24 25 34 35 -36 117 0
-113 114 115 -23 -24 25 34 -35 36 147 0
-113 114 115 -23 -24 25 34 -35 -36 166 0
-113 114 115 -23 -24 25 -34 35 36 156 0
-113 114 115 -23 -24 25 -34 35 -36 118 0
-113 114 115 -23 -24 25 -34 -35 36 118 0
-113 114 115 -23 -24 25 -34 -35 -36 117 0
-113 114 115 -23 -24 -25 34 35 36 117 0
-113 114 115 -23 -24 -25 34 35 -36 117 0
-113 114 115 -23 -24 -25 34 -35 36 117 0
-113 114 115 -23 -24 -25 34 -35 -36 118 0
-113 114 115 -23 -24 -25 -34 35 36 117 0
-113 114 115 -23 -24 -25 -34 35 -36 117 0
-113 114 115 -23 -24 -25 -34 -35 36 117 0
-113 114 115 -23 -24 -25 -34 -35 -36 117 0
-113 114 -115 23 24 25 34 35 36 118 0
-113 114 -115 23 24 25 34 35 -36 117 0
-113 114 -115 23 24 25 34 -35 36 117 0
-113 114 -115 23 24 25 34 -35 -36 137 0
-113 114 -115 23 24 25 -34 35 36 138 0
-113 114 -115 23 24 25 -34 35 -36 156 0
-113 114 -115 23 24 25 -34 -35 36 116 0
-113 114 -115 23 24 25 -34 -35 -36 117 0
-113 114 -115 23 24 -25 34 35 36 117 0
-113 114 -115 23 24 -25 34 35 -36 119 0
-113 114 -115 23 24 -25 34 -35 36 175 0
-113 114 -115 23 24 -25 34 -35 -36 120 0
-113 114 -115 23 24 -25 -34 35 36 139 0
-113 114 -115 23 24 -25 -34 35 -36 166 0
-113 114 -115 23 24 -25 -34 -35 36 149 0
-113 114 -115 23 24 -25 -34 -35 -36 117 0
-113 114 -115 23 -24 25 34 35 36 156 0
-113 114 -115 23 -24 25 34 35 -36 138 0
-113 114 -115 23 -24 25 34 -35 36 150 0
-113 114 -115 23 -24 25 34 -35 -36 151 0
-113 114 -115 23 -24 25 -34 35 36 141 0
-113 114 -115 23 -24 25 -34 35 -36 182 0
-113 114 -115 23 -24 25 -34 -35 36 171 0
-113 114 -115 23 -24 25 -34 -35 -36 117 0
-113 114 -115 23 -24 -25 34 35 36 158 0
-113 114 -115 23 -24 -25 34 35 -36 156 0
-113 114 -115 23 -24 -25 34 -35 36 157 0
-113 114 -115 23 -24 -25 34 -35 -36 183 0
-113 114 -115 23 -24 -25 -34 35 36 136 0
-113 114 -115 23 -24 -25 -34 35 -36 133 0
-113 114 -115 23 -24 -25 -34 -35 36 155 0
-113 114 -115 23 -24 -25 -34 -35 -36 138 0
-113 114 -115 -23 24 25 34 35 36 117 0
-113 114 -115 -23 24 25 34 35 -36 119 0
-113 114 -115 -23 24 25 34 -35 36 150 0
-113 114 -115 -23 24 25 34 -35 -36 144 0
-113 114 -115 -23 24 25 -34 35 36 130 0
-113 114 -115 -23 24 25 -34 35 -36 148 0
-113 114 -115 -23 24 25 -34 -35 36 125 0
-113 114 -115 -23 24 25 -34 -35 -36 118 0
-113 114 -115 -23 24 -25 34 35 36 117 0
-113 114 -115 -23 24 -25 34 35 -36 158 0
-113 114 -115 -23 24 -25 34 -35 36 177 0
-113 114 -115 -23 24 -25 34 -35 -36 120 0
-113 114 -115 -23 24 -25 -34 35 36 142 0
-113 114 -115 -23 24 -25 -34 35 -36 189 0
-113 114 -115 -23 24 -25 -34 -35 36 118 0
-113 114 -115 -23 24 -25 -34 -35 -36 117 0
-113 114 -115 -23 -24 25 34 35 36 117 0
-113 114 -115 -23 -24 25 34 35 -36 117 0
-113 114 -115 -23 -24 25 34 -35 36 119 0
-113 114 -115 -23 -24 25 34 -35 -36 156 0
-113 114 -115 -23 -24 25 -34 35 36 166 0
-113 114 -115 -23 -24 25 -34 35 -36 118 0
-113 114 -115 -23 -24 25 -34 -35 36 118 0
-113 114 -115 -23 -24 25 -34 -35 -36 117 0
-113 114 -115 -23 -24 -25 34 35 36 117 0
-113 114 -115 -23 -24 -25 34 35 -36 117 0
-113 114 -115 -23 -24 -25 34 -35 36 117 0
-113 114 -115 -23 -24 -25 34 -35 -36 116 0
-113 114 -115 -23 -24 -25 -34 35 36 117 0
-113 114 -115 -23 -24 -25 -34 35 -36 117 0
-113 114 -115 -23 -24 -25 -34 -35 36 117 0
-113 114 -115 -23 -24 -25 -34 -35 -36 117 0
-113 -114 115 23 24 25 34 35 36 118 0
-113 -114 115 23 24 25 34 35 -36 117 0
-113 -114 115 23 24 25 34 -35 36 117 0
-113 -114 115 23 24 25 34 -35 -36 137 0
-113 -114 115 23 24 25 -34 35 36 138 0
-113 -114 115 23 24 25 -34 35 -36 156 0
-113 -114 115 23 24 25 -34 -35 36 118 0
-113 -114 115 23 24 25 -34 -35 -36 117 0
-113 -114 115 23 24 -25 34 35 36 117 0
-113 -114 115 23 24 -25 34 35 -36 119 0
-113 -114 115 23 24 -25 34 -35 36 175 0
-113 -114 115 23 24 -25 34 -35 -36 120 0
-113 -114 115 23 24 -25 -34 35 36 139 0
-113 -114 115 23 24 -25 -34 35 -36 139 0
-113 -114 115 23 24 -25 -34 -35 36 138 0
-113 -114 115 23 24 -25 -34 -35 -36 117 0
-113 -114 115 23 -24 25 34 35 36 156 0
-113 -114 115 23 -24 25 34 35 -36 138 0
-113 -114 115 23 -24 25 34 -35 36 150 0
-113 -114 115 23 -24 25 34 -35 -36 151 0
-113 -114 115 23 -24 25 -34 35 36 167 0
-113 -114 115 23 -24 25 -34 35 -36 124 0
-113 -114 115 23 -24 25 -34 -35 36 153 0
-113 -114 115 23 -24 25 -34 -35 -36 117 0
-113 -114 115 23 -24 -25 34 35 36 158 0
-113 -114 115 23 -24 -25 34 35 -36 156 0
-113 -114 115 23 -24 -25 34 -35 36 157 0
-113 -114 115 23 -24 -25 34 -35 -36 183 0
-113 -114 115 23 -24 -25 -34 35 36 121 0
-113 -114 115 23 -24 -25 -34 35 -36 176 0
-113 -114 115 23 -24 -25 -34 -35 36 187 0
-113 -114 115 23 -24 -25 -34 -35 -36 138 0
-113 -114 115 -23 24 25 34 35 36 117 0
-113 -114 115 -23 24 25 34 35 -36 119 0
-113 -114 115 -23 24 25 34 -35 36 150 0
-113 -114 115 -23 24 25 34 -35 -36 144 0
-113 -114 115 -23 24 25 -34 35 36 140 0
-113 -114 115 -23 24 25 -34 35 -36 138 0
-113 -114 115 -23 24 25 -34 -35 36 131 0
-113 -114 115 -23 24 25 -34 -35 -36 118 0
-113 -114 115 -23 24 -25 34 35 36 117 0
-113 -114 115 -23 24 -25 34 35 -36 158 0
-113 -114 115 -23 24 -25 34 -35 36 177 0
-113 -114 115 -23 24 -25 34 -35 -36 120 0
-113 -114 115 -23 24 -25 -34 35 36 159 0
-113 -114 115 -23 24 -25 -34 35 -36 143 0
-113 -114 115 -23 24 -25 -34 -35 36 116 0
-113 -114 115 -23 24 -25 -34 -35 -36 117 0
-113 -114 115 -23 -24 25 34 35 36 117 0
-113 -114 115 -23 -24 25 34 35 -36 117 0
-113 -114 115 -23 -24 25 34 -35 36 119 0
-113 -114 115 -23 -24 25 34 -35 -36 156 0
-113 -114 115 -23 -24 25 -34 35 36 156 0
-113 -114 115 -23 -24 25 -34 35 -36 116 0
-113 -114 115 -23 -24 25 -34 -35 36 116 0
-113 -114 115 -23 -24 25 -34 -35 -36 117 0
-113 -114 115 -23 -24 -25 34 35 36 117 0
-113 -114 115 -23 -24 -25 34 35 -36 117 0
-113 -114 115 -23 -24 -25 34 -35 36 117 0
-113 -114 115 -23 -24 -25 34 -35 -36 118 0
-113 -114 115 -23 -24 -25 -34 35 36 117 0
-113 -114 115 -23 -24 -25 -34 35 -36 117 0
-113 -114 115 -23 -24 -25 -34 -35 36 117 0
-113 -114 115 -23 -24 -25 -34 -35 -36 117 0
-113 -114 -115 23 24 25 34 35 36 118 0
-113 -114 -115 23 24 25 34 35 -36 117 0
-113 -114 -115 23 24 25 34 -35 36 117 0
-113 -114 -115 23 24 25 34 -35 -36 137 0
-113 -114 -115 23 24 25 -34 35 36 138 0
-113 -114 -115 23 24 25 -34 35 -36 156 0
-113 -114 -115 23 24 25 -34 -35 36 118 0
-113 -114 -115 23 24 25 -34 -35 -36 117 0
-113 -114 -115 23 24 -25 34 35 36 117 0
-113 -114 -115 23 24 -25 34 35 -36 119 0
-113 -114 -115 23 24 -25 34 -35 36 175 0
-113 -114 -115 23 24 -25 34 -35 -36 120 0
-113 -114 -115 23 24 -25 -34 35 36 139 0
-113 -114 -115 23 24 -25 -34 35 -36 139 0
-113 -114 -115 23 24 -25 -34 -35 36 138 0
-113 -114 -115 23 24 -25 -34 -35 -36 117 0
-113 -114 -115 23 -24 25 34 35 36 156 0
-113 -114 -115 23 -24 25 34 35 -36 138 0
-113 -114 -115 23 -24 25 34 -35 36 150 0
-113 -114 -115 23 -24 25 34 -35 -36 151 0
-113 -114 -115 23 -24 25 -34 35 36 167 0
-113 -114 -115 23 -24 25 -34 35 -36 124 0
-113 -114 -115 23 -24 25 -34 -35 36 119 0
-113 -114 -115 23 -24 25 -34 -35 -36 117 0
-113 -114 -115 23 -24 -25 34 35 36 158 0
-113 -114 -115 23 -24 -25 34 35 -36 156 0
-113 -114 -115 23 -24 -25 34 -35 36 157 0
-113 -114 -115 23 -24 -25 34 -35 -36 183 0
-113 -114 -115 23 -24 -25 -34 35 36 121 0
-113 -114 -115 23 -24 -25 -34 35 -36 176 0
-113 -114 -115 23 -24 -25 -34 -35 36 177 0
-113 -114 -115 23 -24 -25 -34 -35 -36 149 0
-113 -114 -115 -23 24 25 34 35 36 117 0
-113 -114 -115 -23 24 25 34 35 -36 119 0
-113 -114 -115 -23 24 25 34 -35 36 150 0
-113 -114 -115 -23 24 25 34 -35 -36 144 0
-113 -114 -115 -23 24 25 -34 35 36 140 0
-113 -114 -115 -23 24 25 -34 35 -36 168 0
-113 -114 -115 -23 24 25 -34 -35 36 125 0
-113 -114 -115 -23 24 25 -34 -35 -36 116 0
-113 -114 -115 -23 24 -25 34 35 36 117 0
-113 -114 -115 -23 24 -25 34 35 -36 158 0
-113 -114 -115 -23 24 -25 34 -35 36 177 0
-113 -114 -115 -23 24 -25 34 -35 -36 120 0
-113 -114 -115 -23 24 -25 -34 35 36 159 0
-113 -114 -115 -23 24 -25 -34 35 -36 150 0
-113 -114 -115 -23 24 -25 -34 -35 36 118 0
-113 -114 -115 -23 24 -25 -34 -35 -36 117 0
-113 -114 -115 -23 -24 25 34 35 36 117 0
-113 -114 -115 -23 -24 25 34 35 -36 117 0
-113 -114 -115 -23 -24 25 34 -35 36 119 0
-113 -114 -115 -23 -24 25 34 -35 -36 156 0
-113 -114 -115 -23 -24 25 -34 35 36 156 0
-113 -114 -115 -23 -24 25 -34 35 -36 118 0
-113 -114 -115 -23 -24 25 -34 -35 36 118 0
-113 -114 -115 -23 -24 25 -34 -35 -36 117 0
-113 -114 -115 -23 -24 -25 34 35 36 117 0
-113 -114 -115 -23 -24 -25 34 35 -36 117 0
-113 -114 -115 -23 -24 -25 34 -35 36 117 0
-113 -114 -115 -23 -24 -25 34 -35 -36 118 0
-113 -114 -115 -23 -24 -25 -34 35 36 117 0
-113 -114 -115 -23 -24 -25 -34 35 -36 117 0
-113 -114 -115 -23 -24 -25 -34 -35 36 117 0
-113 -114 -115 -23 -24 -25 -34 -35 -36 117 0
